TSPmodel.lp
\ Model TSPmodel
\ LP format - for model browsing. Use MPS format to capture full model detail.
Minimize
  16.1245154965971 X_0,1 + 15.13274595042156 X_0,2 + 19 X_0,3
   + 18.11077027627483 X_0,4 + 20.09975124224178 X_0,5
   + 1.414213562373095 X_0,6 + 16.1245154965971 X_1,0 + X_1,2
   + 3.605551275463989 X_1,3 + 4.47213595499958 X_1,4
   + 5.656854249492381 X_1,5 + 15.03329637837291 X_1,6
   + 15.13274595042156 X_2,0 + X_2,1 + 4.47213595499958 X_2,3 + 5 X_2,4
   + 6.403124237432849 X_2,5 + 14.0356688476182 X_2,6 + 19 X_3,0
   + 3.605551275463989 X_3,1 + 4.47213595499958 X_3,2
   + 2.23606797749979 X_3,4 + 2.23606797749979 X_3,5
   + 18.02775637731995 X_3,6 + 18.11077027627483 X_4,0
   + 4.47213595499958 X_4,1 + 5 X_4,2 + 2.23606797749979 X_4,3 + 2 X_4,5
   + 17.26267650163207 X_4,6 + 20.09975124224178 X_5,0
   + 5.656854249492381 X_5,1 + 6.403124237432849 X_5,2
   + 2.23606797749979 X_5,3 + 2 X_5,4 + 19.23538406167134 X_5,6
   + 1.414213562373095 X_6,0 + 15.03329637837291 X_6,1
   + 14.0356688476182 X_6,2 + 18.02775637731995 X_6,3
   + 17.26267650163207 X_6,4 + 19.23538406167134 X_6,5
Subject To
 Visit_0: X_0,0 + X_0,1 + X_0,2 + X_0,3 + X_0,4 + X_0,5 + X_0,6 = 1
 Visit_1: X_1,0 + X_1,1 + X_1,2 + X_1,3 + X_1,4 + X_1,5 + X_1,6 = 1
 Visit_2: X_2,0 + X_2,1 + X_2,2 + X_2,3 + X_2,4 + X_2,5 + X_2,6 = 1
 Visit_3: X_3,0 + X_3,1 + X_3,2 + X_3,3 + X_3,4 + X_3,5 + X_3,6 = 1
 Visit_4: X_4,0 + X_4,1 + X_4,2 + X_4,3 + X_4,4 + X_4,5 + X_4,6 = 1
 Visit_5: X_5,0 + X_5,1 + X_5,2 + X_5,3 + X_5,4 + X_5,5 + X_5,6 = 1
 Visit_6: X_6,0 + X_6,1 + X_6,2 + X_6,3 + X_6,4 + X_6,5 + X_6,6 = 1
 Visit_6: X_0,0 + X_1,0 + X_2,0 + X_3,0 + X_4,0 + X_5,0 + X_6,0 = 1
 Visit_6: X_0,1 + X_1,1 + X_2,1 + X_3,1 + X_4,1 + X_5,1 + X_6,1 = 1
 Visit_6: X_0,2 + X_1,2 + X_2,2 + X_3,2 + X_4,2 + X_5,2 + X_6,2 = 1
 Visit_6: X_0,3 + X_1,3 + X_2,3 + X_3,3 + X_4,3 + X_5,3 + X_6,3 = 1
 Visit_6: X_0,4 + X_1,4 + X_2,4 + X_3,4 + X_4,4 + X_5,4 + X_6,4 = 1
 Visit_6: X_0,5 + X_1,5 + X_2,5 + X_3,5 + X_4,5 + X_5,5 + X_6,5 = 1
 Visit_6: X_0,6 + X_1,6 + X_2,6 + X_3,6 + X_4,6 + X_5,6 + X_6,6 = 1
 R14: W_0 = 1
 R15: W_1 >= 2
 R16: W_1 <= 7
 R17: W_2 >= 2
 R18: W_2 <= 7
 R19: W_3 >= 2
 R20: W_3 <= 7
 R21: W_4 >= 2
 R22: W_4 <= 7
 R23: W_5 >= 2
 R24: W_5 <= 7
 R25: W_6 >= 2
 R26: W_6 <= 7
 R27: 7 X_0,1 + W_0 - W_1 <= 6
 R28: 7 X_0,2 + W_0 - W_2 <= 6
 R29: 7 X_0,3 + W_0 - W_3 <= 6
 R30: 7 X_0,4 + W_0 - W_4 <= 6
 R31: 7 X_0,5 + W_0 - W_5 <= 6
 R32: 7 X_0,6 + W_0 - W_6 <= 6
 R33: 7 X_1,1 <= 6
 R34: 7 X_1,2 + W_1 - W_2 <= 6
 R35: 7 X_1,3 + W_1 - W_3 <= 6
 R36: 7 X_1,4 + W_1 - W_4 <= 6
 R37: 7 X_1,5 + W_1 - W_5 <= 6
 R38: 7 X_1,6 + W_1 - W_6 <= 6
 R39: 7 X_2,1 - W_1 + W_2 <= 6
 R40: 7 X_2,2 <= 6
 R41: 7 X_2,3 + W_2 - W_3 <= 6
 R42: 7 X_2,4 + W_2 - W_4 <= 6
 R43: 7 X_2,5 + W_2 - W_5 <= 6
 R44: 7 X_2,6 + W_2 - W_6 <= 6
 R45: 7 X_3,1 - W_1 + W_3 <= 6
 R46: 7 X_3,2 - W_2 + W_3 <= 6
 R47: 7 X_3,3 <= 6
 R48: 7 X_3,4 + W_3 - W_4 <= 6
 R49: 7 X_3,5 + W_3 - W_5 <= 6
 R50: 7 X_3,6 + W_3 - W_6 <= 6
 R51: 7 X_4,1 - W_1 + W_4 <= 6
 R52: 7 X_4,2 - W_2 + W_4 <= 6
 R53: 7 X_4,3 - W_3 + W_4 <= 6
 R54: 7 X_4,4 <= 6
 R55: 7 X_4,5 + W_4 - W_5 <= 6
 R56: 7 X_4,6 + W_4 - W_6 <= 6
 R57: 7 X_5,1 - W_1 + W_5 <= 6
 R58: 7 X_5,2 - W_2 + W_5 <= 6
 R59: 7 X_5,3 - W_3 + W_5 <= 6
 R60: 7 X_5,4 - W_4 + W_5 <= 6
 R61: 7 X_5,5 <= 6
 R62: 7 X_5,6 + W_5 - W_6 <= 6
 R63: 7 X_6,1 - W_1 + W_6 <= 6
 R64: 7 X_6,2 - W_2 + W_6 <= 6
 R65: 7 X_6,3 - W_3 + W_6 <= 6
 R66: 7 X_6,4 - W_4 + W_6 <= 6
 R67: 7 X_6,5 - W_5 + W_6 <= 6
 R68: 7 X_6,6 <= 6
Bounds
Binaries
 X_0,0 X_0,1 X_0,2 X_0,3 X_0,4 X_0,5 X_0,6 X_1,0 X_1,1 X_1,2 X_1,3 X_1,4
 X_1,5 X_1,6 X_2,0 X_2,1 X_2,2 X_2,3 X_2,4 X_2,5 X_2,6 X_3,0 X_3,1 X_3,2
 X_3,3 X_3,4 X_3,5 X_3,6 X_4,0 X_4,1 X_4,2 X_4,3 X_4,4 X_4,5 X_4,6 X_5,0
 X_5,1 X_5,2 X_5,3 X_5,4 X_5,5 X_5,6 X_6,0 X_6,1 X_6,2 X_6,3 X_6,4 X_6,5
 X_6,6
End
