TSPmodel.sol
# Solution for model TSPmodel
# Objective value = 4.2402271939229905e+01
X_0,0 0
X_0,1 0
X_0,2 0
X_0,3 0
X_0,4 0
X_0,5 0
X_0,6 1
X_1,0 0
X_1,1 0
X_1,2 0
X_1,3 1
X_1,4 0
X_1,5 0
X_1,6 0
X_2,0 0
X_2,1 1
X_2,2 0
X_2,3 0
X_2,4 0
X_2,5 0
X_2,6 0
X_3,0 0
X_3,1 0
X_3,2 0
X_3,3 0
X_3,4 0
X_3,5 1
X_3,6 0
X_4,0 1
X_4,1 0
X_4,2 0
X_4,3 0
X_4,4 0
X_4,5 0
X_4,6 0
X_5,0 0
X_5,1 0
X_5,2 0
X_5,3 0
X_5,4 1
X_5,5 0
X_5,6 0
X_6,0 0
X_6,1 0
X_6,2 1
X_6,3 0
X_6,4 0
X_6,5 0
X_6,6 0
W_0 1
W_1 4
W_2 3
W_3 5
W_4 7
W_5 6
W_6 2
